(set-info :origin "Horn problem converted to SMT-LIB2 using Eldarica (https://github.com/uuverifiers/eldarica)")
(set-logic HORN)
(declare-fun INV_MAIN_0 (Int Int Int Int Int Int Int Int Int Int Int Int) Bool)
(declare-fun INV_MAIN_1 (Int Int Int Int Int Int Int Int Int Int Int Int) Bool)
(assert (forall ((A Int) (B Int) (C Int) (D Int) (E Int) (F Int) (G Int) (H Int) (I Int) (J Int) (K Int) (L Int))(=> (and (and (and (and (and (and (and (and (not (and (= K E) (not (= L F)))) (not (<= A (- 1)))) (not (>= (+ C A) 0))) (not (= D 0))) (= B A)) (= G A)) (= H C)) (= (- I D) (- 1))) (= J A)) (INV_MAIN_0 A B C D E F G H I J K L))))
(assert (forall ((A Int) (B Int) (C Int) (D Int) (E Int) (F Int) (G Int) (H Int) (I Int) (J Int) (K Int) (L Int))(=> (and (and (and (and (and (and (and (and (not (and (= K E) (not (= L F)))) (not (>= A 0))) (not (>= C A))) (not (= D 0))) (= B A)) (= G A)) (= H C)) (= (- I D) (- 1))) (= J A)) (INV_MAIN_0 A B C D E F G H I J K L))))
(assert (forall ((A Int) (B Int) (C Int) (D Int) (E Int) (F Int) (G Int) (H Int) (I Int) (J Int) (K Int) (L Int))(=> (and (and (and (and (and (and (and (and (not (and (= K E) (not (= L F)))) (not (<= A (- 1)))) (not (<= C A))) (not (= D 0))) (= B A)) (= G A)) (= H C)) (= (- I D) (- 1))) (= J A)) (INV_MAIN_0 A B C D E F G H I J K L))))
(assert (forall ((A Int) (B Int) (C Int) (D Int) (E Int) (F Int) (G Int) (H Int) (I Int) (J Int) (K Int) (L Int))(=> (and (and (and (and (and (and (and (and (not (and (= K E) (not (= L F)))) (not (>= A 0))) (not (>= (* (- 1) C) A))) (not (= D 0))) (= B A)) (= G A)) (= H C)) (= (- I D) (- 1))) (= J A)) (INV_MAIN_0 A B C D E F G H I J K L))))
(assert (forall ((A Int) (B Int) (C Int) (D Int) (E Int) (F Int) (G Int) (H Int) (I Int) (J Int) (K Int) (L Int))(=> (and (and (and (and (and (and (and (and (not (and (= K E) (not (= L F)))) (not (>= (- (+ (* (- 2) B) A) C) 1))) (not (>= (+ C (- B A)) 0))) (not (= B A))) (= (+ D (- B A)) 0)) (= (- G A) (- 1))) (= (- H C) (- 1))) (= (+ I (- B A)) (- 1))) (= J B)) (INV_MAIN_1 A B C D E F G H I J K L))))
(assert (forall ((A Int) (B Int) (C Int) (D Int) (E Int) (F Int) (G Int) (H Int) (I Int) (J Int) (K Int) (L Int))(=> (and (and (and (and (and (and (and (and (not (and (= K E) (not (= L F)))) (not (<= C A))) (not (>= (+ C (- B A)) 0))) (not (= B A))) (= (+ D (- B A)) 0)) (= (- G A) (- 1))) (= (- H C) (- 1))) (= (+ I (- B A)) (- 1))) (= J B)) (INV_MAIN_1 A B C D E F G H I J K L))))
(assert (forall ((A Int) (B Int) (C Int) (D Int) (E Int) (F Int) (G Int) (H Int) (I Int) (J Int) (K Int) (L Int))(=> (and (and (and (and (and (and (and (and (not (and (= K E) (not (= L F)))) (not (>= (- (- A B) C) 1))) (not (>= C A))) (not (= B A))) (= (+ D (- B A)) 0)) (= (- G A) (- 1))) (= (- H C) (- 1))) (= (+ I (- B A)) (- 1))) (= J B)) (INV_MAIN_1 A B C D E F G H I J K L))))
(assert (forall ((A Int) (B Int) (C Int) (D Int) (E Int) (F Int) (G Int) (H Int) (I Int) (J Int) (K Int) (L Int))(=> (and (and (and (and (and (and (and (and (and (not (and (= K E) (not (= L F)))) (not (>= B 0))) (not (>= (- (- A B) C) 1))) (not (>= (+ C (- (* 2 B) A)) 1))) (not (= B A))) (= (+ D (- B A)) 0)) (= (- G A) (- 1))) (= (- H C) (- 1))) (= (+ I (- B A)) (- 1))) (= J B)) (INV_MAIN_1 A B C D E F G H I J K L))))
(assert (forall ((A Int) (B Int) (C Int) (D Int) (E Int) (F Int) (G Int) (H Int) (I Int) (J Int) (K Int) (L Int) (M Int) (N Int) (O Int) (P Int) (Q Int) (R Int) (S Int) (T Int) (U Int) (V Int) (W Int) (X Int)) (not (and (and (and (and (and (and (and (and (and (and (and (and (and (and (and (and (and (and (and (and (INV_MAIN_0 A B C D E F G H I J K L) (INV_MAIN_0 M N O P Q R S T U V W X)) (not (and (= S M) (not (= L X))))) (not (and (= T M) (not (= L X))))) (not (= O M))) (not (= L R))) (= P 1)) (= Q O)) (= U 0)) (= W T)) (= A M)) (= B N)) (= C O)) (= D 1)) (= E O)) (= F R)) (= G S)) (= H T)) (= I 0)) (= J V)) (= K M)))))
(assert (forall ((A Int) (B Int) (C Int) (D Int) (E Int) (F Int) (G Int) (H Int) (I Int) (J Int) (K Int) (L Int) (M Int) (N Int) (O Int) (P Int) (Q Int) (R Int) (S Int) (T Int) (U Int) (V Int) (W Int) (X Int) (Y Int) (Z Int) (A1 Int) (B1 Int) (C1 Int) (D1 Int) (E1 Int) (F1 Int) (G1 Int) (H1 Int) (I1 Int) (J1 Int) (K1 Int) (L1 Int) (M1 Int) (N1 Int) (O1 Int) (P1 Int) (Q1 Int) (R1 Int) (S1 Int) (T1 Int) (U1 Int) (V1 Int)) (not (and (and (and (and (and (and (and (and (and (and (and (and (and (and (and (and (and (and (and (and (and (and (and (and (and (and (and (and (and (and (and (and (and (and (and (and (and (and (and (and (and (and (and (and (and (INV_MAIN_0 A B C D E F G H I J K L) (INV_MAIN_0 M N O P Q R S T U V W X)) (INV_MAIN_0 Y Z A1 B1 C1 D1 E1 F1 G1 H1 I1 J1)) (INV_MAIN_0 K1 L1 M1 N1 O1 P1 Q1 R1 S1 T1 U1 V1)) (not (and (= O1 K1) (not (= R P1))))) (not (and (= O1 M1) (not (= R P1))))) (not (and (= Q1 O1) (not (= J1 V1))))) (not (and (= R1 O1) (not (= J1 V1))))) (not (= V1 P1))) (= N1 1)) (= S1 0)) (= U1 O1)) (= Y K1)) (= Z L1)) (= A1 M1)) (= B1 1)) (= C1 O1)) (= D1 P1)) (= E1 Q1)) (= F1 R1)) (= G1 0)) (= H1 T1)) (= I1 R1)) (= M K1)) (= N L1)) (= O M1)) (= P 1)) (= Q M1)) (= S Q1)) (= T R1)) (= U 0)) (= V T1)) (= W O1)) (= X V1)) (= A K1)) (= B L1)) (= C M1)) (= D 1)) (= E M1)) (= F R)) (= G Q1)) (= H R1)) (= I 0)) (= J T1)) (= K R1)) (= L J1)))))
(assert (forall ((A Int) (B Int) (C Int) (D Int) (E Int) (F Int) (G Int) (H Int) (I Int) (J Int) (K Int) (L Int)) (not (and (and (and (and (and (and (and (and (INV_MAIN_0 A B C D E F G H I J K L) (not (= C A))) (not (= H A))) (not (= L F))) (= D 1)) (= E C)) (= G A)) (= I 0)) (= K H)))))
(assert (forall ((A Int) (B Int) (C Int) (D Int) (E Int) (F Int) (G Int) (H Int) (I Int) (J Int) (K Int) (L Int) (M Int) (N Int) (O Int) (P Int) (Q Int) (R Int) (S Int) (T Int) (U Int) (V Int) (W Int) (X Int)) (not (and (and (and (and (and (and (and (and (and (and (and (and (and (and (and (and (and (and (and (and (INV_MAIN_0 A B C D E F G H I J K L) (INV_MAIN_0 M N O P Q R S T U V W X)) (not (and (= Q M) (not (= F R))))) (not (and (= Q O) (not (= F R))))) (not (= T Q))) (not (= X R))) (= P 1)) (= S Q)) (= U 0)) (= W T)) (= A M)) (= B N)) (= C O)) (= D 1)) (= E O)) (= G Q)) (= H T)) (= I 0)) (= J V)) (= K T)) (= L X)))))
(assert (forall ((A Int) (B Int) (C Int) (D Int) (E Int) (F Int) (G Int) (H Int) (I Int) (J Int) (K Int) (L Int) (M Int) (N Int) (O Int) (P Int) (Q Int) (R Int) (S Int) (T Int) (U Int) (V Int) (W Int) (X Int)) (not (and (and (and (and (and (and (and (and (and (and (and (and (and (and (INV_MAIN_0 A B C D E F G H I J K L) (INV_MAIN_0 M N O P Q R S T U V W X)) (not (= V N))) (= A M)) (= B N)) (= C O)) (= D 1)) (= E Q)) (= F R)) (= G S)) (= H T)) (= I 0)) (= J V)) (= K W)) (= L X)))))
(assert (forall ((A Int) (B Int) (C Int) (D Int) (E Int) (F Int) (G Int) (H Int) (I Int) (J Int) (K Int) (L Int) (M Int) (N Int) (O Int) (P Int) (Q Int) (R Int) (S Int) (T Int) (U Int) (V Int) (W Int) (X Int) (Y Int) (Z Int) (A1 Int) (B1 Int) (C1 Int) (D1 Int) (E1 Int) (F1 Int) (G1 Int) (H1 Int) (I1 Int) (J1 Int) (K1 Int) (L1 Int) (M1 Int) (N1 Int) (O1 Int) (P1 Int) (Q1 Int) (R1 Int) (S1 Int) (T1 Int) (U1 Int) (V1 Int) (W1 Int) (X1 Int) (Y1 Int) (Z1 Int) (A2 Int) (B2 Int) (C2 Int) (D2 Int) (E2 Int) (F2 Int) (G2 Int) (H2 Int))(=> (and (and (and (and (and (and (and (and (and (and (and (and (and (and (and (and (and (and (and (and (and (and (and (and (and (and (and (and (and (and (and (and (and (and (and (and (and (and (and (and (and (and (and (and (and (and (and (and (and (and (and (and (and (and (and (INV_MAIN_0 M N O P Q R S T U V W X) (INV_MAIN_0 Y Z A1 B1 C1 D1 E1 F1 G1 H1 I1 J1)) (INV_MAIN_0 K1 L1 M1 N1 O1 P1 Q1 R1 S1 T1 U1 V1)) (INV_MAIN_0 W1 X1 Y1 Z1 A2 B2 C2 D2 E2 F2 G2 H2)) (not (and (= (- E A) (- 1)) (not (= D1 F))))) (not (and (= (- E C) (- 1)) (not (= D1 F))))) (not (and (= (- K G) (- 1)) (not (= V1 L))))) (not (and (= (- K H) (- 1)) (not (= V1 L))))) (not (= D 0))) (not (= I (- 1)))) (= (- W1 A) (- 1))) (= X1 B)) (= (- Y1 C) (- 1))) (= (- Z1 D) 1)) (= A2 E)) (= B2 F)) (= (- C2 G) (- 1))) (= (- D2 H) (- 1))) (= (- E2 I) 1)) (= F2 J)) (= G2 K)) (= H2 L)) (= (- K1 A) (- 1))) (= L1 B)) (= (- M1 C) (- 1))) (= (- N1 D) 1)) (= O1 E)) (= P1 F)) (= (- Q1 G) (- 1))) (= (- R1 H) (- 1))) (= (- S1 I) 1)) (= T1 J)) (= (- U1 H) (- 1))) (= (- Y A) (- 1))) (= Z B)) (= (- A1 C) (- 1))) (= (- B1 D) 1)) (= (- C1 C) (- 1))) (= (- E1 G) (- 1))) (= (- F1 H) (- 1))) (= (- G1 I) 1)) (= H1 J)) (= I1 K)) (= J1 L)) (= (- M A) (- 1))) (= N B)) (= (- O C) (- 1))) (= (- P D) 1)) (= (- Q C) (- 1))) (= R D1)) (= (- S G) (- 1))) (= (- T H) (- 1))) (= (- U I) 1)) (= V J)) (= (- W H) (- 1))) (= X V1)) (INV_MAIN_0 A B C D E F G H I J K L))))
(assert (forall ((A Int) (B Int) (C Int) (D Int) (E Int) (F Int) (G Int) (H Int) (I Int) (J Int) (K Int) (L Int) (M Int) (N Int) (O Int) (P Int) (Q Int) (R Int) (S Int) (T Int) (U Int) (V Int) (W Int) (X Int) (Y Int) (Z Int) (A1 Int) (B1 Int) (C1 Int) (D1 Int) (E1 Int) (F1 Int) (G1 Int) (H1 Int) (I1 Int) (J1 Int))(=> (and (and (and (and (and (and (and (and (and (and (and (and (and (and (and (and (and (and (and (and (and (and (and (and (and (and (and (and (and (and (INV_MAIN_0 M N O P Q R S T U V W X) (INV_MAIN_0 Y Z A1 B1 C1 D1 E1 F1 G1 H1 I1 J1)) (not (and (= (- K G) (- 1)) (not (= X L))))) (not (and (= (- K H) (- 1)) (not (= X L))))) (not (= C A))) (not (= D 0))) (not (= I (- 1)))) (= (- E A) (- 1))) (= (- Y A) (- 1))) (= Z B)) (= (- A1 C) (- 1))) (= (- B1 D) 1)) (= (- C1 C) (- 1))) (= D1 F)) (= (- E1 G) (- 1))) (= (- F1 H) (- 1))) (= (- G1 I) 1)) (= H1 J)) (= I1 K)) (= J1 L)) (= (- M A) (- 1))) (= N B)) (= (- O C) (- 1))) (= (- P D) 1)) (= (- Q C) (- 1))) (= R F)) (= (- S G) (- 1))) (= (- T H) (- 1))) (= (- U I) 1)) (= V J)) (= (- W H) (- 1))) (INV_MAIN_0 A B C D E F G H I J K L))))
(assert (forall ((A Int) (B Int) (C Int) (D Int) (E Int) (F Int) (G Int) (H Int) (I Int) (J Int) (K Int) (L Int) (M Int) (N Int) (O Int) (P Int) (Q Int) (R Int) (S Int) (T Int) (U Int) (V Int) (W Int) (X Int) (Y Int) (Z Int) (A1 Int) (B1 Int) (C1 Int) (D1 Int) (E1 Int) (F1 Int) (G1 Int) (H1 Int) (I1 Int) (J1 Int))(=> (and (and (and (and (and (and (and (and (and (and (and (and (and (and (and (and (and (and (and (and (and (and (and (and (and (and (and (and (and (and (INV_MAIN_0 M N O P Q R S T U V W X) (INV_MAIN_0 Y Z A1 B1 C1 D1 E1 F1 G1 H1 I1 J1)) (not (and (= (- E A) (- 1)) (not (= R F))))) (not (and (= (- E C) (- 1)) (not (= R F))))) (not (= D 0))) (not (= H G))) (not (= I (- 1)))) (= (- K G) (- 1))) (= (- Y A) (- 1))) (= Z B)) (= (- A1 C) (- 1))) (= (- B1 D) 1)) (= C1 E)) (= D1 F)) (= (- E1 G) (- 1))) (= (- F1 H) (- 1))) (= (- G1 I) 1)) (= H1 J)) (= (- I1 H) (- 1))) (= J1 L)) (= (- M A) (- 1))) (= N B)) (= (- O C) (- 1))) (= (- P D) 1)) (= (- Q C) (- 1))) (= (- S G) (- 1))) (= (- T H) (- 1))) (= (- U I) 1)) (= V J)) (= (- W H) (- 1))) (= X L)) (INV_MAIN_0 A B C D E F G H I J K L))))
(assert (forall ((A Int) (B Int) (C Int) (D Int) (E Int) (F Int) (G Int) (H Int) (I Int) (J Int) (K Int) (L Int) (M Int) (N Int) (O Int) (P Int) (Q Int) (R Int) (S Int) (T Int) (U Int) (V Int) (W Int) (X Int))(=> (and (and (and (and (and (and (and (and (and (and (and (and (and (and (and (and (and (and (INV_MAIN_0 M N O P Q R S T U V W X) (not (= C A))) (not (= D 0))) (not (= H G))) (not (= I (- 1)))) (= (- E A) (- 1))) (= (- K G) (- 1))) (= (- M A) (- 1))) (= N B)) (= (- O C) (- 1))) (= (- P D) 1)) (= (- Q C) (- 1))) (= R F)) (= (- S G) (- 1))) (= (- T H) (- 1))) (= (- U I) 1)) (= V J)) (= (- W H) (- 1))) (= X L)) (INV_MAIN_0 A B C D E F G H I J K L))))
(assert (forall ((A Int) (B Int) (C Int) (D Int) (E Int) (F Int) (G Int) (H Int) (I Int) (J Int) (K Int) (L Int) (M Int) (N Int) (O Int) (P Int) (Q Int) (R Int) (S Int) (T Int) (U Int) (V Int) (W Int) (X Int))(=> (and (and (and (and (and (and (and (and (and (and (and (and (and (and (and (and (INV_MAIN_0 M N O P Q R S T U V W X) (not (= C A))) (not (= D 0))) (= (- E A) (- 1))) (= I 0)) (= (- M A) (- 1))) (= N B)) (= (- O C) (- 1))) (= (- P D) 1)) (= (- Q C) (- 1))) (= R F)) (= S G)) (= T H)) (= U 0)) (= V J)) (= W K)) (= X L)) (INV_MAIN_0 A B C D E F G H I J K L))))
(assert (forall ((A Int) (B Int) (C Int) (D Int) (E Int) (F Int) (G Int) (H Int) (I Int) (J Int) (K Int) (L Int) (M Int) (N Int) (O Int) (P Int) (Q Int) (R Int) (S Int) (T Int) (U Int) (V Int) (W Int) (X Int) (Y Int) (Z Int) (A1 Int) (B1 Int) (C1 Int) (D1 Int) (E1 Int) (F1 Int) (G1 Int) (H1 Int) (I1 Int) (J1 Int))(=> (and (and (and (and (and (and (and (and (and (and (and (and (and (and (and (and (and (and (and (and (and (and (and (and (and (and (and (and (INV_MAIN_0 M N O P Q R S T U V W X) (INV_MAIN_0 Y Z A1 B1 C1 D1 E1 F1 G1 H1 I1 J1)) (not (and (= (- E A) (- 1)) (not (= R F))))) (not (and (= (- E C) (- 1)) (not (= R F))))) (not (= D 0))) (= I 0)) (= (- Y A) (- 1))) (= Z B)) (= (- A1 C) (- 1))) (= (- B1 D) 1)) (= C1 E)) (= D1 F)) (= E1 G)) (= F1 H)) (= G1 0)) (= H1 J)) (= I1 K)) (= J1 L)) (= (- M A) (- 1))) (= N B)) (= (- O C) (- 1))) (= (- P D) 1)) (= (- Q C) (- 1))) (= S G)) (= T H)) (= U 0)) (= V J)) (= W K)) (= X L)) (INV_MAIN_0 A B C D E F G H I J K L))))
(assert (forall ((A Int) (B Int) (C Int) (D Int) (E Int) (F Int) (G Int) (H Int) (I Int) (J Int) (K Int) (L Int) (M Int) (N Int) (O Int) (P Int) (Q Int) (R Int) (S Int) (T Int) (U Int) (V Int) (W Int) (X Int))(=> (and (and (and (and (and (and (and (and (and (and (and (and (and (and (and (and (INV_MAIN_0 M N O P Q R S T U V W X) (not (= H G))) (not (= I (- 1)))) (= D 1)) (= (- K G) (- 1))) (= M A)) (= N B)) (= O C)) (= P 1)) (= Q E)) (= R F)) (= (- S G) (- 1))) (= (- T H) (- 1))) (= (- U I) 1)) (= V J)) (= (- W H) (- 1))) (= X L)) (INV_MAIN_0 A B C D E F G H I J K L))))
(assert (forall ((A Int) (B Int) (C Int) (D Int) (E Int) (F Int) (G Int) (H Int) (I Int) (J Int) (K Int) (L Int) (M Int) (N Int) (O Int) (P Int) (Q Int) (R Int) (S Int) (T Int) (U Int) (V Int) (W Int) (X Int) (Y Int) (Z Int) (A1 Int) (B1 Int) (C1 Int) (D1 Int) (E1 Int) (F1 Int) (G1 Int) (H1 Int) (I1 Int) (J1 Int))(=> (and (and (and (and (and (and (and (and (and (and (and (and (and (and (and (and (and (and (and (and (and (and (and (and (and (and (and (and (INV_MAIN_0 M N O P Q R S T U V W X) (INV_MAIN_0 Y Z A1 B1 C1 D1 E1 F1 G1 H1 I1 J1)) (not (and (= (- K G) (- 1)) (not (= X L))))) (not (and (= (- K H) (- 1)) (not (= X L))))) (not (= I (- 1)))) (= D 1)) (= Y A)) (= Z B)) (= A1 C)) (= B1 1)) (= C1 E)) (= D1 F)) (= (- E1 G) (- 1))) (= (- F1 H) (- 1))) (= (- G1 I) 1)) (= H1 J)) (= I1 K)) (= J1 L)) (= M A)) (= N B)) (= O C)) (= P 1)) (= Q E)) (= R F)) (= (- S G) (- 1))) (= (- T H) (- 1))) (= (- U I) 1)) (= V J)) (= (- W H) (- 1))) (INV_MAIN_0 A B C D E F G H I J K L))))
(assert (forall ((A Int) (B Int) (C Int) (D Int) (E Int) (F Int) (G Int) (H Int) (I Int) (J Int) (K Int) (L Int) (M Int) (N Int) (O Int) (P Int) (Q Int) (R Int) (S Int) (T Int) (U Int) (V Int) (W Int) (X Int)) (not (and (and (and (and (and (and (and (and (and (and (and (and (and (and (and (and (and (and (and (and (INV_MAIN_1 A B C D E F G H I J K L) (INV_MAIN_1 M N O P Q R S T U V W X)) (not (and (= (- Q M) (- 1)) (not (= F R))))) (not (and (= (- Q O) (- 1)) (not (= F R))))) (not (= T Q))) (not (= X R))) (= P 1)) (= S Q)) (= U 0)) (= W T)) (= A M)) (= B N)) (= C O)) (= D 1)) (= (- E O) (- 1))) (= G Q)) (= H T)) (= I 0)) (= J V)) (= K T)) (= L X)))))
(assert (forall ((A Int) (B Int) (C Int) (D Int) (E Int) (F Int) (G Int) (H Int) (I Int) (J Int) (K Int) (L Int)) (not (and (and (and (and (and (and (and (and (INV_MAIN_1 A B C D E F G H I J K L) (not (= C A))) (not (= (- H A) (- 1)))) (not (= L F))) (= D 1)) (= (- E C) (- 1))) (= (- G A) (- 1))) (= I 0)) (= K H)))))
(assert (forall ((A Int) (B Int) (C Int) (D Int) (E Int) (F Int) (G Int) (H Int) (I Int) (J Int) (K Int) (L Int) (M Int) (N Int) (O Int) (P Int) (Q Int) (R Int) (S Int) (T Int) (U Int) (V Int) (W Int) (X Int) (Y Int) (Z Int) (A1 Int) (B1 Int) (C1 Int) (D1 Int) (E1 Int) (F1 Int) (G1 Int) (H1 Int) (I1 Int) (J1 Int) (K1 Int) (L1 Int) (M1 Int) (N1 Int) (O1 Int) (P1 Int) (Q1 Int) (R1 Int) (S1 Int) (T1 Int) (U1 Int) (V1 Int)) (not (and (and (and (and (and (and (and (and (and (and (and (and (and (and (and (and (and (and (and (and (and (and (and (and (and (and (and (and (and (and (and (and (and (and (and (and (and (and (and (and (and (and (and (and (and (INV_MAIN_1 A B C D E F G H I J K L) (INV_MAIN_1 M N O P Q R S T U V W X)) (INV_MAIN_1 Y Z A1 B1 C1 D1 E1 F1 G1 H1 I1 J1)) (INV_MAIN_1 K1 L1 M1 N1 O1 P1 Q1 R1 S1 T1 U1 V1)) (not (and (= (- O1 K1) (- 1)) (not (= R P1))))) (not (and (= (- O1 M1) (- 1)) (not (= R P1))))) (not (and (= Q1 O1) (not (= J1 V1))))) (not (and (= R1 O1) (not (= J1 V1))))) (not (= V1 P1))) (= N1 1)) (= S1 0)) (= U1 O1)) (= Y K1)) (= Z L1)) (= A1 M1)) (= B1 1)) (= C1 O1)) (= D1 P1)) (= E1 Q1)) (= F1 R1)) (= G1 0)) (= H1 T1)) (= I1 R1)) (= M K1)) (= N L1)) (= O M1)) (= P 1)) (= (- Q M1) (- 1))) (= S Q1)) (= T R1)) (= U 0)) (= V T1)) (= W O1)) (= X V1)) (= A K1)) (= B L1)) (= C M1)) (= D 1)) (= (- E M1) (- 1))) (= F R)) (= G Q1)) (= H R1)) (= I 0)) (= J T1)) (= K R1)) (= L J1)))))
(assert (forall ((A Int) (B Int) (C Int) (D Int) (E Int) (F Int) (G Int) (H Int) (I Int) (J Int) (K Int) (L Int) (M Int) (N Int) (O Int) (P Int) (Q Int) (R Int) (S Int) (T Int) (U Int) (V Int) (W Int) (X Int)) (not (and (and (and (and (and (and (and (and (and (and (and (and (and (and (and (and (and (and (and (and (INV_MAIN_1 A B C D E F G H I J K L) (INV_MAIN_1 M N O P Q R S T U V W X)) (not (and (= (- S M) (- 1)) (not (= L X))))) (not (and (= (- T M) (- 1)) (not (= L X))))) (not (= O M))) (not (= L R))) (= P 1)) (= (- Q O) (- 1))) (= U 0)) (= W T)) (= A M)) (= B N)) (= C O)) (= D 1)) (= (- E O) (- 1))) (= F R)) (= G S)) (= H T)) (= I 0)) (= J V)) (= (- K M) (- 1))))))
(assert (forall ((A Int) (B Int) (C Int) (D Int) (E Int) (F Int) (G Int) (H Int) (I Int) (J Int) (K Int) (L Int) (M Int) (N Int) (O Int) (P Int) (Q Int) (R Int) (S Int) (T Int) (U Int) (V Int) (W Int) (X Int)) (not (and (and (and (and (and (and (and (and (and (and (and (and (and (and (INV_MAIN_1 A B C D E F G H I J K L) (INV_MAIN_1 M N O P Q R S T U V W X)) (not (= V N))) (= A M)) (= B N)) (= C O)) (= D 1)) (= E Q)) (= F R)) (= G S)) (= H T)) (= I 0)) (= J V)) (= K W)) (= L X)))))
(assert (forall ((A Int) (B Int) (C Int) (D Int) (E Int) (F Int) (G Int) (H Int) (I Int) (J Int) (K Int) (L Int) (M Int) (N Int) (O Int) (P Int) (Q Int) (R Int) (S Int) (T Int) (U Int) (V Int) (W Int) (X Int) (Y Int) (Z Int) (A1 Int) (B1 Int) (C1 Int) (D1 Int) (E1 Int) (F1 Int) (G1 Int) (H1 Int) (I1 Int) (J1 Int))(=> (and (and (and (and (and (and (and (and (and (and (and (and (and (and (and (and (and (and (and (and (and (and (and (and (and (and (and (and (and (and (INV_MAIN_1 M N O P Q R S T U V W X) (INV_MAIN_1 Y Z A1 B1 C1 D1 E1 F1 G1 H1 I1 J1)) (not (and (= E A) (not (= R F))))) (not (and (= E C) (not (= R F))))) (not (= D 0))) (not (= H G))) (not (= I (- 1)))) (= (- K G) 1)) (= (- Y A) 1)) (= Z B)) (= (- A1 C) 1)) (= (- B1 D) 1)) (= C1 E)) (= D1 F)) (= (- E1 G) 1)) (= (- F1 H) 1)) (= (- G1 I) 1)) (= H1 J)) (= (- I1 H) 1)) (= J1 L)) (= (- M A) 1)) (= N B)) (= (- O C) 1)) (= (- P D) 1)) (= Q C)) (= (- S G) 1)) (= (- T H) 1)) (= (- U I) 1)) (= V J)) (= (- W H) 1)) (= X L)) (INV_MAIN_1 A B C D E F G H I J K L))))
(assert (forall ((A Int) (B Int) (C Int) (D Int) (E Int) (F Int) (G Int) (H Int) (I Int) (J Int) (K Int) (L Int) (M Int) (N Int) (O Int) (P Int) (Q Int) (R Int) (S Int) (T Int) (U Int) (V Int) (W Int) (X Int))(=> (and (and (and (and (and (and (and (and (and (and (and (and (and (and (and (and (and (and (INV_MAIN_1 M N O P Q R S T U V W X) (not (= C A))) (not (= D 0))) (not (= H G))) (not (= I (- 1)))) (= E A)) (= (- K G) 1)) (= (- M A) 1)) (= N B)) (= (- O C) 1)) (= (- P D) 1)) (= Q C)) (= R F)) (= (- S G) 1)) (= (- T H) 1)) (= (- U I) 1)) (= V J)) (= (- W H) 1)) (= X L)) (INV_MAIN_1 A B C D E F G H I J K L))))
(assert (forall ((A Int) (B Int) (C Int) (D Int) (E Int) (F Int) (G Int) (H Int) (I Int) (J Int) (K Int) (L Int) (M Int) (N Int) (O Int) (P Int) (Q Int) (R Int) (S Int) (T Int) (U Int) (V Int) (W Int) (X Int) (Y Int) (Z Int) (A1 Int) (B1 Int) (C1 Int) (D1 Int) (E1 Int) (F1 Int) (G1 Int) (H1 Int) (I1 Int) (J1 Int) (K1 Int) (L1 Int) (M1 Int) (N1 Int) (O1 Int) (P1 Int) (Q1 Int) (R1 Int) (S1 Int) (T1 Int) (U1 Int) (V1 Int) (W1 Int) (X1 Int) (Y1 Int) (Z1 Int) (A2 Int) (B2 Int) (C2 Int) (D2 Int) (E2 Int) (F2 Int) (G2 Int) (H2 Int))(=> (and (and (and (and (and (and (and (and (and (and (and (and (and (and (and (and (and (and (and (and (and (and (and (and (and (and (and (and (and (and (and (and (and (and (and (and (and (and (and (and (and (and (and (and (and (and (and (and (and (and (and (and (and (and (and (INV_MAIN_1 M N O P Q R S T U V W X) (INV_MAIN_1 Y Z A1 B1 C1 D1 E1 F1 G1 H1 I1 J1)) (INV_MAIN_1 K1 L1 M1 N1 O1 P1 Q1 R1 S1 T1 U1 V1)) (INV_MAIN_1 W1 X1 Y1 Z1 A2 B2 C2 D2 E2 F2 G2 H2)) (not (and (= E A) (not (= D1 F))))) (not (and (= E C) (not (= D1 F))))) (not (and (= (- K G) 1) (not (= V1 L))))) (not (and (= (- K H) 1) (not (= V1 L))))) (not (= D 0))) (not (= I (- 1)))) (= (- W1 A) 1)) (= X1 B)) (= (- Y1 C) 1)) (= (- Z1 D) 1)) (= A2 E)) (= B2 F)) (= (- C2 G) 1)) (= (- D2 H) 1)) (= (- E2 I) 1)) (= F2 J)) (= G2 K)) (= H2 L)) (= (- K1 A) 1)) (= L1 B)) (= (- M1 C) 1)) (= (- N1 D) 1)) (= O1 E)) (= P1 F)) (= (- Q1 G) 1)) (= (- R1 H) 1)) (= (- S1 I) 1)) (= T1 J)) (= (- U1 H) 1)) (= (- Y A) 1)) (= Z B)) (= (- A1 C) 1)) (= (- B1 D) 1)) (= C1 C)) (= (- E1 G) 1)) (= (- F1 H) 1)) (= (- G1 I) 1)) (= H1 J)) (= I1 K)) (= J1 L)) (= (- M A) 1)) (= N B)) (= (- O C) 1)) (= (- P D) 1)) (= Q C)) (= R D1)) (= (- S G) 1)) (= (- T H) 1)) (= (- U I) 1)) (= V J)) (= (- W H) 1)) (= X V1)) (INV_MAIN_1 A B C D E F G H I J K L))))
(assert (forall ((A Int) (B Int) (C Int) (D Int) (E Int) (F Int) (G Int) (H Int) (I Int) (J Int) (K Int) (L Int) (M Int) (N Int) (O Int) (P Int) (Q Int) (R Int) (S Int) (T Int) (U Int) (V Int) (W Int) (X Int) (Y Int) (Z Int) (A1 Int) (B1 Int) (C1 Int) (D1 Int) (E1 Int) (F1 Int) (G1 Int) (H1 Int) (I1 Int) (J1 Int))(=> (and (and (and (and (and (and (and (and (and (and (and (and (and (and (and (and (and (and (and (and (and (and (and (and (and (and (and (and (and (and (INV_MAIN_1 M N O P Q R S T U V W X) (INV_MAIN_1 Y Z A1 B1 C1 D1 E1 F1 G1 H1 I1 J1)) (not (and (= (- K G) 1) (not (= X L))))) (not (and (= (- K H) 1) (not (= X L))))) (not (= C A))) (not (= D 0))) (not (= I (- 1)))) (= E A)) (= (- Y A) 1)) (= Z B)) (= (- A1 C) 1)) (= (- B1 D) 1)) (= C1 C)) (= D1 F)) (= (- E1 G) 1)) (= (- F1 H) 1)) (= (- G1 I) 1)) (= H1 J)) (= I1 K)) (= J1 L)) (= (- M A) 1)) (= N B)) (= (- O C) 1)) (= (- P D) 1)) (= Q C)) (= R F)) (= (- S G) 1)) (= (- T H) 1)) (= (- U I) 1)) (= V J)) (= (- W H) 1)) (INV_MAIN_1 A B C D E F G H I J K L))))
(assert (forall ((A Int) (B Int) (C Int) (D Int) (E Int) (F Int) (G Int) (H Int) (I Int) (J Int) (K Int) (L Int) (M Int) (N Int) (O Int) (P Int) (Q Int) (R Int) (S Int) (T Int) (U Int) (V Int) (W Int) (X Int) (Y Int) (Z Int) (A1 Int) (B1 Int) (C1 Int) (D1 Int) (E1 Int) (F1 Int) (G1 Int) (H1 Int) (I1 Int) (J1 Int))(=> (and (and (and (and (and (and (and (and (and (and (and (and (and (and (and (and (and (and (and (and (and (and (and (and (and (and (and (and (INV_MAIN_1 M N O P Q R S T U V W X) (INV_MAIN_1 Y Z A1 B1 C1 D1 E1 F1 G1 H1 I1 J1)) (not (and (= E A) (not (= R F))))) (not (and (= E C) (not (= R F))))) (not (= D 0))) (= I 0)) (= (- Y A) 1)) (= Z B)) (= (- A1 C) 1)) (= (- B1 D) 1)) (= C1 E)) (= D1 F)) (= E1 G)) (= F1 H)) (= G1 0)) (= H1 J)) (= I1 K)) (= J1 L)) (= (- M A) 1)) (= N B)) (= (- O C) 1)) (= (- P D) 1)) (= Q C)) (= S G)) (= T H)) (= U 0)) (= V J)) (= W K)) (= X L)) (INV_MAIN_1 A B C D E F G H I J K L))))
(assert (forall ((A Int) (B Int) (C Int) (D Int) (E Int) (F Int) (G Int) (H Int) (I Int) (J Int) (K Int) (L Int) (M Int) (N Int) (O Int) (P Int) (Q Int) (R Int) (S Int) (T Int) (U Int) (V Int) (W Int) (X Int))(=> (and (and (and (and (and (and (and (and (and (and (and (and (and (and (and (and (INV_MAIN_1 M N O P Q R S T U V W X) (not (= C A))) (not (= D 0))) (= E A)) (= I 0)) (= (- M A) 1)) (= N B)) (= (- O C) 1)) (= (- P D) 1)) (= Q C)) (= R F)) (= S G)) (= T H)) (= U 0)) (= V J)) (= W K)) (= X L)) (INV_MAIN_1 A B C D E F G H I J K L))))
(assert (forall ((A Int) (B Int) (C Int) (D Int) (E Int) (F Int) (G Int) (H Int) (I Int) (J Int) (K Int) (L Int) (M Int) (N Int) (O Int) (P Int) (Q Int) (R Int) (S Int) (T Int) (U Int) (V Int) (W Int) (X Int) (Y Int) (Z Int) (A1 Int) (B1 Int) (C1 Int) (D1 Int) (E1 Int) (F1 Int) (G1 Int) (H1 Int) (I1 Int) (J1 Int))(=> (and (and (and (and (and (and (and (and (and (and (and (and (and (and (and (and (and (and (and (and (and (and (and (and (and (and (and (and (INV_MAIN_1 M N O P Q R S T U V W X) (INV_MAIN_1 Y Z A1 B1 C1 D1 E1 F1 G1 H1 I1 J1)) (not (and (= (- K G) 1) (not (= X L))))) (not (and (= (- K H) 1) (not (= X L))))) (not (= I (- 1)))) (= D 1)) (= Y A)) (= Z B)) (= A1 C)) (= B1 1)) (= C1 E)) (= D1 F)) (= (- E1 G) 1)) (= (- F1 H) 1)) (= (- G1 I) 1)) (= H1 J)) (= I1 K)) (= J1 L)) (= M A)) (= N B)) (= O C)) (= P 1)) (= Q E)) (= R F)) (= (- S G) 1)) (= (- T H) 1)) (= (- U I) 1)) (= V J)) (= (- W H) 1)) (INV_MAIN_1 A B C D E F G H I J K L))))
(assert (forall ((A Int) (B Int) (C Int) (D Int) (E Int) (F Int) (G Int) (H Int) (I Int) (J Int) (K Int) (L Int) (M Int) (N Int) (O Int) (P Int) (Q Int) (R Int) (S Int) (T Int) (U Int) (V Int) (W Int) (X Int))(=> (and (and (and (and (and (and (and (and (and (and (and (and (and (and (and (and (INV_MAIN_1 M N O P Q R S T U V W X) (not (= H G))) (not (= I (- 1)))) (= D 1)) (= (- K G) 1)) (= M A)) (= N B)) (= O C)) (= P 1)) (= Q E)) (= R F)) (= (- S G) 1)) (= (- T H) 1)) (= (- U I) 1)) (= V J)) (= (- W H) 1)) (= X L)) (INV_MAIN_1 A B C D E F G H I J K L))))
(check-sat)
